NAME: ./prFile/tspFile/tsp_file95.tsp
COMMENT: TSP file generated by Python
TYPE: TSP
DIMENSION: 40
EDGE_WEIGHT_TYPE: EUC_2D
NODE_COORD_SECTION
1 41 69
2 48 20
3 28 85
4 64 28
5 88 23
6 15 17
7 79 77
8 41 34
9 54 7
10 36 98
11 31 51
12 17 19
13 29 65
14 85 63
15 46 72
16 54 20
17 75 42
18 51 89
19 82 62
20 40 58
21 84 98
22 91 22
23 28 47
24 17 14
25 10 19
26 70 38
27 43 95
28 33 14
29 50 84
30 85 73
31 31 59
32 19 82
33 39 1
34 58 73
35 65 60
36 16 68
37 45 21
38 64 92
39 14 87
40 98 69
EOF
